c description: Perfect Matching Principle on 
c generator: CNFgen (0.9.0)
c copyright: (C) 2012-2020 Massimo Lauria <massimo.lauria@uniroma1.it>
c url: https://massimolauria.net/cnfgen
c
p cnf 160 1271
-1 -2 0
-1 -3 0
-1 -4 0
-1 -5 0
-1 -6 0
-1 -7 0
-1 -8 0
-1 -9 0
-2 -3 0
-2 -4 0
-2 -5 0
-2 -6 0
-2 -7 0
-2 -8 0
-2 -9 0
-3 -4 0
-3 -5 0
-3 -6 0
-3 -7 0
-3 -8 0
-3 -9 0
-4 -5 0
-4 -6 0
-4 -7 0
-4 -8 0
-4 -9 0
-5 -6 0
-5 -7 0
-5 -8 0
-5 -9 0
-6 -7 0
-6 -8 0
-6 -9 0
-7 -8 0
-7 -9 0
-8 -9 0
1 2 3 4 5 6 7 8 9 0
-10 -11 0
-10 -12 0
-10 -13 0
-11 -12 0
-11 -13 0
-12 -13 0
10 11 12 13 0
-1 -10 0
-1 -14 0
-1 -15 0
-1 -16 0
-1 -17 0
-10 -14 0
-10 -15 0
-10 -16 0
-10 -17 0
-14 -15 0
-14 -16 0
-14 -17 0
-15 -16 0
-15 -17 0
-16 -17 0
1 10 14 15 16 17 0
-2 -18 0
-2 -19 0
-2 -20 0
-2 -21 0
-2 -22 0
-2 -23 0
-2 -24 0
-18 -19 0
-18 -20 0
-18 -21 0
-18 -22 0
-18 -23 0
-18 -24 0
-19 -20 0
-19 -21 0
-19 -22 0
-19 -23 0
-19 -24 0
-20 -21 0
-20 -22 0
-20 -23 0
-20 -24 0
-21 -22 0
-21 -23 0
-21 -24 0
-22 -23 0
-22 -24 0
-23 -24 0
2 18 19 20 21 22 23 24 0
-25 -26 0
-25 -27 0
-25 -28 0
-25 -29 0
-25 -30 0
-25 -31 0
-25 -32 0
-25 -33 0
-26 -27 0
-26 -28 0
-26 -29 0
-26 -30 0
-26 -31 0
-26 -32 0
-26 -33 0
-27 -28 0
-27 -29 0
-27 -30 0
-27 -31 0
-27 -32 0
-27 -33 0
-28 -29 0
-28 -30 0
-28 -31 0
-28 -32 0
-28 -33 0
-29 -30 0
-29 -31 0
-29 -32 0
-29 -33 0
-30 -31 0
-30 -32 0
-30 -33 0
-31 -32 0
-31 -33 0
-32 -33 0
25 26 27 28 29 30 31 32 33 0
-34 -35 0
-34 -36 0
-34 -37 0
-34 -38 0
-34 -39 0
-34 -40 0
-35 -36 0
-35 -37 0
-35 -38 0
-35 -39 0
-35 -40 0
-36 -37 0
-36 -38 0
-36 -39 0
-36 -40 0
-37 -38 0
-37 -39 0
-37 -40 0
-38 -39 0
-38 -40 0
-39 -40 0
34 35 36 37 38 39 40 0
-41 -42 0
-41 -43 0
-41 -44 0
-41 -45 0
-41 -46 0
-41 -47 0
-41 -48 0
-41 -49 0
-41 -50 0
-42 -43 0
-42 -44 0
-42 -45 0
-42 -46 0
-42 -47 0
-42 -48 0
-42 -49 0
-42 -50 0
-43 -44 0
-43 -45 0
-43 -46 0
-43 -47 0
-43 -48 0
-43 -49 0
-43 -50 0
-44 -45 0
-44 -46 0
-44 -47 0
-44 -48 0
-44 -49 0
-44 -50 0
-45 -46 0
-45 -47 0
-45 -48 0
-45 -49 0
-45 -50 0
-46 -47 0
-46 -48 0
-46 -49 0
-46 -50 0
-47 -48 0
-47 -49 0
-47 -50 0
-48 -49 0
-48 -50 0
-49 -50 0
41 42 43 44 45 46 47 48 49 50 0
-3 -25 0
-3 -41 0
-3 -51 0
-3 -52 0
-25 -41 0
-25 -51 0
-25 -52 0
-41 -51 0
-41 -52 0
-51 -52 0
3 25 41 51 52 0
-26 -53 0
-26 -54 0
-26 -55 0
-53 -54 0
-53 -55 0
-54 -55 0
26 53 54 55 0
-27 -42 0
-27 -56 0
-27 -57 0
-27 -58 0
-27 -59 0
-27 -60 0
-27 -61 0
-27 -62 0
-42 -56 0
-42 -57 0
-42 -58 0
-42 -59 0
-42 -60 0
-42 -61 0
-42 -62 0
-56 -57 0
-56 -58 0
-56 -59 0
-56 -60 0
-56 -61 0
-56 -62 0
-57 -58 0
-57 -59 0
-57 -60 0
-57 -61 0
-57 -62 0
-58 -59 0
-58 -60 0
-58 -61 0
-58 -62 0
-59 -60 0
-59 -61 0
-59 -62 0
-60 -61 0
-60 -62 0
-61 -62 0
27 42 56 57 58 59 60 61 62 0
-43 -56 0
-43 -63 0
-43 -64 0
-43 -65 0
-43 -66 0
-43 -67 0
-43 -68 0
-56 -63 0
-56 -64 0
-56 -65 0
-56 -66 0
-56 -67 0
-56 -68 0
-63 -64 0
-63 -65 0
-63 -66 0
-63 -67 0
-63 -68 0
-64 -65 0
-64 -66 0
-64 -67 0
-64 -68 0
-65 -66 0
-65 -67 0
-65 -68 0
-66 -67 0
-66 -68 0
-67 -68 0
43 56 63 64 65 66 67 68 0
-28 -44 0
-28 -63 0
-28 -69 0
-28 -70 0
-28 -71 0
-28 -72 0
-28 -73 0
-28 -74 0
-28 -75 0
-44 -63 0
-44 -69 0
-44 -70 0
-44 -71 0
-44 -72 0
-44 -73 0
-44 -74 0
-44 -75 0
-63 -69 0
-63 -70 0
-63 -71 0
-63 -72 0
-63 -73 0
-63 -74 0
-63 -75 0
-69 -70 0
-69 -71 0
-69 -72 0
-69 -73 0
-69 -74 0
-69 -75 0
-70 -71 0
-70 -72 0
-70 -73 0
-70 -74 0
-70 -75 0
-71 -72 0
-71 -73 0
-71 -74 0
-71 -75 0
-72 -73 0
-72 -74 0
-72 -75 0
-73 -74 0
-73 -75 0
-74 -75 0
28 44 63 69 70 71 72 73 74 75 0
-76 -77 0
-76 -78 0
-76 -79 0
-76 -80 0
-76 -81 0
-76 -82 0
-77 -78 0
-77 -79 0
-77 -80 0
-77 -81 0
-77 -82 0
-78 -79 0
-78 -80 0
-78 -81 0
-78 -82 0
-79 -80 0
-79 -81 0
-79 -82 0
-80 -81 0
-80 -82 0
-81 -82 0
76 77 78 79 80 81 82 0
-18 -34 0
-18 -57 0
-18 -83 0
-18 -84 0
-18 -85 0
-34 -57 0
-34 -83 0
-34 -84 0
-34 -85 0
-57 -83 0
-57 -84 0
-57 -85 0
-83 -84 0
-83 -85 0
-84 -85 0
18 34 57 83 84 85 0
-4 -86 0
-4 -87 0
-4 -88 0
-4 -89 0
-4 -90 0
-4 -91 0
-86 -87 0
-86 -88 0
-86 -89 0
-86 -90 0
-86 -91 0
-87 -88 0
-87 -89 0
-87 -90 0
-87 -91 0
-88 -89 0
-88 -90 0
-88 -91 0
-89 -90 0
-89 -91 0
-90 -91 0
4 86 87 88 89 90 91 0
-69 -92 0
-69 -93 0
-92 -93 0
69 92 93 0
-11 -35 0
-11 -76 0
-11 -94 0
-11 -95 0
-11 -96 0
-11 -97 0
-11 -98 0
-11 -99 0
-11 -100 0
-11 -101 0
-11 -102 0
-35 -76 0
-35 -94 0
-35 -95 0
-35 -96 0
-35 -97 0
-35 -98 0
-35 -99 0
-35 -100 0
-35 -101 0
-35 -102 0
-76 -94 0
-76 -95 0
-76 -96 0
-76 -97 0
-76 -98 0
-76 -99 0
-76 -100 0
-76 -101 0
-76 -102 0
-94 -95 0
-94 -96 0
-94 -97 0
-94 -98 0
-94 -99 0
-94 -100 0
-94 -101 0
-94 -102 0
-95 -96 0
-95 -97 0
-95 -98 0
-95 -99 0
-95 -100 0
-95 -101 0
-95 -102 0
-96 -97 0
-96 -98 0
-96 -99 0
-96 -100 0
-96 -101 0
-96 -102 0
-97 -98 0
-97 -99 0
-97 -100 0
-97 -101 0
-97 -102 0
-98 -99 0
-98 -100 0
-98 -101 0
-98 -102 0
-99 -100 0
-99 -101 0
-99 -102 0
-100 -101 0
-100 -102 0
-101 -102 0
11 35 76 94 95 96 97 98 99 100 101 102 0
-29 -58 0
-29 -64 0
-29 -92 0
-29 -103 0
-29 -104 0
-29 -105 0
-29 -106 0
-29 -107 0
-58 -64 0
-58 -92 0
-58 -103 0
-58 -104 0
-58 -105 0
-58 -106 0
-58 -107 0
-64 -92 0
-64 -103 0
-64 -104 0
-64 -105 0
-64 -106 0
-64 -107 0
-92 -103 0
-92 -104 0
-92 -105 0
-92 -106 0
-92 -107 0
-103 -104 0
-103 -105 0
-103 -106 0
-103 -107 0
-104 -105 0
-104 -106 0
-104 -107 0
-105 -106 0
-105 -107 0
-106 -107 0
29 58 64 92 103 104 105 106 107 0
-14 -108 0
-14 -109 0
-14 -110 0
-108 -109 0
-108 -110 0
-109 -110 0
14 108 109 110 0
-65 -70 0
-65 -93 0
-65 -111 0
-65 -112 0
-65 -113 0
-65 -114 0
-70 -93 0
-70 -111 0
-70 -112 0
-70 -113 0
-70 -114 0
-93 -111 0
-93 -112 0
-93 -113 0
-93 -114 0
-111 -112 0
-111 -113 0
-111 -114 0
-112 -113 0
-112 -114 0
-113 -114 0
65 70 93 111 112 113 114 0
-30 -45 0
-30 -53 0
-30 -77 0
-30 -86 0
-30 -94 0
-30 -115 0
-30 -116 0
-30 -117 0
-30 -118 0
-30 -119 0
-45 -53 0
-45 -77 0
-45 -86 0
-45 -94 0
-45 -115 0
-45 -116 0
-45 -117 0
-45 -118 0
-45 -119 0
-53 -77 0
-53 -86 0
-53 -94 0
-53 -115 0
-53 -116 0
-53 -117 0
-53 -118 0
-53 -119 0
-77 -86 0
-77 -94 0
-77 -115 0
-77 -116 0
-77 -117 0
-77 -118 0
-77 -119 0
-86 -94 0
-86 -115 0
-86 -116 0
-86 -117 0
-86 -118 0
-86 -119 0
-94 -115 0
-94 -116 0
-94 -117 0
-94 -118 0
-94 -119 0
-115 -116 0
-115 -117 0
-115 -118 0
-115 -119 0
-116 -117 0
-116 -118 0
-116 -119 0
-117 -118 0
-117 -119 0
-118 -119 0
30 45 53 77 86 94 115 116 117 118 119 0
-19 -95 0
-19 -115 0
-19 -120 0
-19 -121 0
-19 -122 0
-19 -123 0
-95 -115 0
-95 -120 0
-95 -121 0
-95 -122 0
-95 -123 0
-115 -120 0
-115 -121 0
-115 -122 0
-115 -123 0
-120 -121 0
-120 -122 0
-120 -123 0
-121 -122 0
-121 -123 0
-122 -123 0
19 95 115 120 121 122 123 0
-59 -96 0
-59 -124 0
-59 -125 0
-59 -126 0
-59 -127 0
-59 -128 0
-59 -129 0
-96 -124 0
-96 -125 0
-96 -126 0
-96 -127 0
-96 -128 0
-96 -129 0
-124 -125 0
-124 -126 0
-124 -127 0
-124 -128 0
-124 -129 0
-125 -126 0
-125 -127 0
-125 -128 0
-125 -129 0
-126 -127 0
-126 -128 0
-126 -129 0
-127 -128 0
-127 -129 0
-128 -129 0
59 96 124 125 126 127 128 129 0
-36 -54 0
-36 -78 0
-36 -83 0
-36 -87 0
-36 -120 0
-36 -130 0
-36 -131 0
-54 -78 0
-54 -83 0
-54 -87 0
-54 -120 0
-54 -130 0
-54 -131 0
-78 -83 0
-78 -87 0
-78 -120 0
-78 -130 0
-78 -131 0
-83 -87 0
-83 -120 0
-83 -130 0
-83 -131 0
-87 -120 0
-87 -130 0
-87 -131 0
-120 -130 0
-120 -131 0
-130 -131 0
36 54 78 83 87 120 130 131 0
-37 -97 0
-37 -111 0
-37 -116 0
-37 -132 0
-37 -133 0
-37 -134 0
-37 -135 0
-97 -111 0
-97 -116 0
-97 -132 0
-97 -133 0
-97 -134 0
-97 -135 0
-111 -116 0
-111 -132 0
-111 -133 0
-111 -134 0
-111 -135 0
-116 -132 0
-116 -133 0
-116 -134 0
-116 -135 0
-132 -133 0
-132 -134 0
-132 -135 0
-133 -134 0
-133 -135 0
-134 -135 0
37 97 111 116 132 133 134 135 0
-15 -46 0
-15 -55 0
-15 -84 0
-15 -88 0
-15 -117 0
-15 -136 0
-15 -137 0
-15 -138 0
-15 -139 0
-15 -140 0
-46 -55 0
-46 -84 0
-46 -88 0
-46 -117 0
-46 -136 0
-46 -137 0
-46 -138 0
-46 -139 0
-46 -140 0
-55 -84 0
-55 -88 0
-55 -117 0
-55 -136 0
-55 -137 0
-55 -138 0
-55 -139 0
-55 -140 0
-84 -88 0
-84 -117 0
-84 -136 0
-84 -137 0
-84 -138 0
-84 -139 0
-84 -140 0
-88 -117 0
-88 -136 0
-88 -137 0
-88 -138 0
-88 -139 0
-88 -140 0
-117 -136 0
-117 -137 0
-117 -138 0
-117 -139 0
-117 -140 0
-136 -137 0
-136 -138 0
-136 -139 0
-136 -140 0
-137 -138 0
-137 -139 0
-137 -140 0
-138 -139 0
-138 -140 0
-139 -140 0
15 46 55 84 88 117 136 137 138 139 140 0
-12 -47 0
-12 -85 0
-12 -98 0
-12 -108 0
-12 -121 0
-12 -130 0
-12 -141 0
-12 -142 0
-47 -85 0
-47 -98 0
-47 -108 0
-47 -121 0
-47 -130 0
-47 -141 0
-47 -142 0
-85 -98 0
-85 -108 0
-85 -121 0
-85 -130 0
-85 -141 0
-85 -142 0
-98 -108 0
-98 -121 0
-98 -130 0
-98 -141 0
-98 -142 0
-108 -121 0
-108 -130 0
-108 -141 0
-108 -142 0
-121 -130 0
-121 -141 0
-121 -142 0
-130 -141 0
-130 -142 0
-141 -142 0
12 47 85 98 108 121 130 141 142 0
-20 -71 0
-20 -79 0
-20 -89 0
-20 -99 0
-20 -103 0
-20 -122 0
-20 -124 0
-20 -136 0
-20 -143 0
-20 -144 0
-20 -145 0
-71 -79 0
-71 -89 0
-71 -99 0
-71 -103 0
-71 -122 0
-71 -124 0
-71 -136 0
-71 -143 0
-71 -144 0
-71 -145 0
-79 -89 0
-79 -99 0
-79 -103 0
-79 -122 0
-79 -124 0
-79 -136 0
-79 -143 0
-79 -144 0
-79 -145 0
-89 -99 0
-89 -103 0
-89 -122 0
-89 -124 0
-89 -136 0
-89 -143 0
-89 -144 0
-89 -145 0
-99 -103 0
-99 -122 0
-99 -124 0
-99 -136 0
-99 -143 0
-99 -144 0
-99 -145 0
-103 -122 0
-103 -124 0
-103 -136 0
-103 -143 0
-103 -144 0
-103 -145 0
-122 -124 0
-122 -136 0
-122 -143 0
-122 -144 0
-122 -145 0
-124 -136 0
-124 -143 0
-124 -144 0
-124 -145 0
-136 -143 0
-136 -144 0
-136 -145 0
-143 -144 0
-143 -145 0
-144 -145 0
20 71 79 89 99 103 122 124 136 143 144 145 0
-21 -38 0
-21 -51 0
-21 -60 0
-21 -72 0
-21 -104 0
-21 -112 0
-21 -125 0
-21 -146 0
-38 -51 0
-38 -60 0
-38 -72 0
-38 -104 0
-38 -112 0
-38 -125 0
-38 -146 0
-51 -60 0
-51 -72 0
-51 -104 0
-51 -112 0
-51 -125 0
-51 -146 0
-60 -72 0
-60 -104 0
-60 -112 0
-60 -125 0
-60 -146 0
-72 -104 0
-72 -112 0
-72 -125 0
-72 -146 0
-104 -112 0
-104 -125 0
-104 -146 0
-112 -125 0
-112 -146 0
-125 -146 0
21 38 51 60 72 104 112 125 146 0
-73 -80 0
-73 -90 0
-73 -141 0
-73 -143 0
-73 -147 0
-73 -148 0
-80 -90 0
-80 -141 0
-80 -143 0
-80 -147 0
-80 -148 0
-90 -141 0
-90 -143 0
-90 -147 0
-90 -148 0
-141 -143 0
-141 -147 0
-141 -148 0
-143 -147 0
-143 -148 0
-147 -148 0
73 80 90 141 143 147 148 0
-5 -66 0
-5 -100 0
-5 -123 0
-5 -149 0
-5 -150 0
-66 -100 0
-66 -123 0
-66 -149 0
-66 -150 0
-100 -123 0
-100 -149 0
-100 -150 0
-123 -149 0
-123 -150 0
-149 -150 0
5 66 100 123 149 150 0
-6 -13 0
-6 -22 0
-6 -48 0
-6 -105 0
-6 -109 0
-6 -113 0
-6 -132 0
-6 -137 0
-6 -147 0
-6 -151 0
-6 -152 0
-13 -22 0
-13 -48 0
-13 -105 0
-13 -109 0
-13 -113 0
-13 -132 0
-13 -137 0
-13 -147 0
-13 -151 0
-13 -152 0
-22 -48 0
-22 -105 0
-22 -109 0
-22 -113 0
-22 -132 0
-22 -137 0
-22 -147 0
-22 -151 0
-22 -152 0
-48 -105 0
-48 -109 0
-48 -113 0
-48 -132 0
-48 -137 0
-48 -147 0
-48 -151 0
-48 -152 0
-105 -109 0
-105 -113 0
-105 -132 0
-105 -137 0
-105 -147 0
-105 -151 0
-105 -152 0
-109 -113 0
-109 -132 0
-109 -137 0
-109 -147 0
-109 -151 0
-109 -152 0
-113 -132 0
-113 -137 0
-113 -147 0
-113 -151 0
-113 -152 0
-132 -137 0
-132 -147 0
-132 -151 0
-132 -152 0
-137 -147 0
-137 -151 0
-137 -152 0
-147 -151 0
-147 -152 0
-151 -152 0
6 13 22 48 105 109 113 132 137 147 151 152 0
-126 -153 0
-126 -154 0
-126 -155 0
-153 -154 0
-153 -155 0
-154 -155 0
126 153 154 155 0
-31 -39 0
-31 -67 0
-31 -101 0
-31 -106 0
-31 -146 0
-31 -156 0
-31 -157 0
-39 -67 0
-39 -101 0
-39 -106 0
-39 -146 0
-39 -156 0
-39 -157 0
-67 -101 0
-67 -106 0
-67 -146 0
-67 -156 0
-67 -157 0
-101 -106 0
-101 -146 0
-101 -156 0
-101 -157 0
-106 -146 0
-106 -156 0
-106 -157 0
-146 -156 0
-146 -157 0
-156 -157 0
31 39 67 101 106 146 156 157 0
-7 -23 0
-7 -81 0
-7 -110 0
-7 -133 0
-7 -151 0
-7 -158 0
-7 -159 0
-23 -81 0
-23 -110 0
-23 -133 0
-23 -151 0
-23 -158 0
-23 -159 0
-81 -110 0
-81 -133 0
-81 -151 0
-81 -158 0
-81 -159 0
-110 -133 0
-110 -151 0
-110 -158 0
-110 -159 0
-133 -151 0
-133 -158 0
-133 -159 0
-151 -158 0
-151 -159 0
-158 -159 0
7 23 81 110 133 151 158 159 0
-16 -32 0
-16 -68 0
-16 -74 0
-16 -91 0
-16 -127 0
-16 -138 0
-16 -144 0
-16 -149 0
-16 -153 0
-32 -68 0
-32 -74 0
-32 -91 0
-32 -127 0
-32 -138 0
-32 -144 0
-32 -149 0
-32 -153 0
-68 -74 0
-68 -91 0
-68 -127 0
-68 -138 0
-68 -144 0
-68 -149 0
-68 -153 0
-74 -91 0
-74 -127 0
-74 -138 0
-74 -144 0
-74 -149 0
-74 -153 0
-91 -127 0
-91 -138 0
-91 -144 0
-91 -149 0
-91 -153 0
-127 -138 0
-127 -144 0
-127 -149 0
-127 -153 0
-138 -144 0
-138 -149 0
-138 -153 0
-144 -149 0
-144 -153 0
-149 -153 0
16 32 68 74 91 127 138 144 149 153 0
-33 -52 0
-33 -128 0
-33 -131 0
-33 -139 0
-33 -142 0
-33 -150 0
-33 -158 0
-33 -160 0
-52 -128 0
-52 -131 0
-52 -139 0
-52 -142 0
-52 -150 0
-52 -158 0
-52 -160 0
-128 -131 0
-128 -139 0
-128 -142 0
-128 -150 0
-128 -158 0
-128 -160 0
-131 -139 0
-131 -142 0
-131 -150 0
-131 -158 0
-131 -160 0
-139 -142 0
-139 -150 0
-139 -158 0
-139 -160 0
-142 -150 0
-142 -158 0
-142 -160 0
-150 -158 0
-150 -160 0
-158 -160 0
33 52 128 131 139 142 150 158 160 0
-49 -61 0
-49 -102 0
-49 -107 0
-49 -114 0
-49 -118 0
-49 -129 0
-49 -134 0
-49 -140 0
-49 -145 0
-49 -154 0
-49 -160 0
-61 -102 0
-61 -107 0
-61 -114 0
-61 -118 0
-61 -129 0
-61 -134 0
-61 -140 0
-61 -145 0
-61 -154 0
-61 -160 0
-102 -107 0
-102 -114 0
-102 -118 0
-102 -129 0
-102 -134 0
-102 -140 0
-102 -145 0
-102 -154 0
-102 -160 0
-107 -114 0
-107 -118 0
-107 -129 0
-107 -134 0
-107 -140 0
-107 -145 0
-107 -154 0
-107 -160 0
-114 -118 0
-114 -129 0
-114 -134 0
-114 -140 0
-114 -145 0
-114 -154 0
-114 -160 0
-118 -129 0
-118 -134 0
-118 -140 0
-118 -145 0
-118 -154 0
-118 -160 0
-129 -134 0
-129 -140 0
-129 -145 0
-129 -154 0
-129 -160 0
-134 -140 0
-134 -145 0
-134 -154 0
-134 -160 0
-140 -145 0
-140 -154 0
-140 -160 0
-145 -154 0
-145 -160 0
-154 -160 0
49 61 102 107 114 118 129 134 140 145 154 160 0
-8 -24 0
-8 -40 0
-8 -75 0
-8 -82 0
-8 -135 0
-8 -152 0
-8 -155 0
-8 -156 0
-8 -159 0
-24 -40 0
-24 -75 0
-24 -82 0
-24 -135 0
-24 -152 0
-24 -155 0
-24 -156 0
-24 -159 0
-40 -75 0
-40 -82 0
-40 -135 0
-40 -152 0
-40 -155 0
-40 -156 0
-40 -159 0
-75 -82 0
-75 -135 0
-75 -152 0
-75 -155 0
-75 -156 0
-75 -159 0
-82 -135 0
-82 -152 0
-82 -155 0
-82 -156 0
-82 -159 0
-135 -152 0
-135 -155 0
-135 -156 0
-135 -159 0
-152 -155 0
-152 -156 0
-152 -159 0
-155 -156 0
-155 -159 0
-156 -159 0
8 24 40 75 82 135 152 155 156 159 0
-9 -17 0
-9 -50 0
-9 -62 0
-9 -119 0
-9 -148 0
-9 -157 0
-17 -50 0
-17 -62 0
-17 -119 0
-17 -148 0
-17 -157 0
-50 -62 0
-50 -119 0
-50 -148 0
-50 -157 0
-62 -119 0
-62 -148 0
-62 -157 0
-119 -148 0
-119 -157 0
-148 -157 0
9 17 50 62 119 148 157 0